<instance format="XCSP3" type="CSP">
  <variables>
    <array id="p" note="p[i][j] is one of the position of the jth value of the ith 4-combination" size="[35][16]"> 0..37 </array>
    <array id="v" note="v[i][j] is the jth value of the ith 4-combination" size="[35][38]"> 0..15 </array>
  </variables>
  <constraints>
    <group note="all values must be present in each 4-combination">
      <allDifferent> %... </allDifferent>
      <args> p[0][] </args>
      <args> p[1][] </args>
      <args> p[2][] </args>
      <args> p[3][] </args>
      <args> p[4][] </args>
      <args> p[5][] </args>
      <args> p[6][] </args>
      <args> p[7][] </args>
      <args> p[8][] </args>
      <args> p[9][] </args>
      <args> p[10][] </args>
      <args> p[11][] </args>
      <args> p[12][] </args>
      <args> p[13][] </args>
      <args> p[14][] </args>
      <args> p[15][] </args>
      <args> p[16][] </args>
      <args> p[17][] </args>
      <args> p[18][] </args>
      <args> p[19][] </args>
      <args> p[20][] </args>
      <args> p[21][] </args>
      <args> p[22][] </args>
      <args> p[23][] </args>
      <args> p[24][] </args>
      <args> p[25][] </args>
      <args> p[26][] </args>
      <args> p[27][] </args>
      <args> p[28][] </args>
      <args> p[29][] </args>
      <args> p[30][] </args>
      <args> p[31][] </args>
      <args> p[32][] </args>
      <args> p[33][] </args>
      <args> p[34][] </args>
    </group>
    <channel>
      <list> p[0][] </list>
      <list> v[0][] </list>
    </channel>
    <channel>
      <list> p[1][] </list>
      <list> v[1][] </list>
    </channel>
    <channel>
      <list> p[2][] </list>
      <list> v[2][] </list>
    </channel>
    <channel>
      <list> p[3][] </list>
      <list> v[3][] </list>
    </channel>
    <channel>
      <list> p[4][] </list>
      <list> v[4][] </list>
    </channel>
    <channel>
      <list> p[5][] </list>
      <list> v[5][] </list>
    </channel>
    <channel>
      <list> p[6][] </list>
      <list> v[6][] </list>
    </channel>
    <channel>
      <list> p[7][] </list>
      <list> v[7][] </list>
    </channel>
    <channel>
      <list> p[8][] </list>
      <list> v[8][] </list>
    </channel>
    <channel>
      <list> p[9][] </list>
      <list> v[9][] </list>
    </channel>
    <channel>
      <list> p[10][] </list>
      <list> v[10][] </list>
    </channel>
    <channel>
      <list> p[11][] </list>
      <list> v[11][] </list>
    </channel>
    <channel>
      <list> p[12][] </list>
      <list> v[12][] </list>
    </channel>
    <channel>
      <list> p[13][] </list>
      <list> v[13][] </list>
    </channel>
    <channel>
      <list> p[14][] </list>
      <list> v[14][] </list>
    </channel>
    <channel>
      <list> p[15][] </list>
      <list> v[15][] </list>
    </channel>
    <channel>
      <list> p[16][] </list>
      <list> v[16][] </list>
    </channel>
    <channel>
      <list> p[17][] </list>
      <list> v[17][] </list>
    </channel>
    <channel>
      <list> p[18][] </list>
      <list> v[18][] </list>
    </channel>
    <channel>
      <list> p[19][] </list>
      <list> v[19][] </list>
    </channel>
    <channel>
      <list> p[20][] </list>
      <list> v[20][] </list>
    </channel>
    <channel>
      <list> p[21][] </list>
      <list> v[21][] </list>
    </channel>
    <channel>
      <list> p[22][] </list>
      <list> v[22][] </list>
    </channel>
    <channel>
      <list> p[23][] </list>
      <list> v[23][] </list>
    </channel>
    <channel>
      <list> p[24][] </list>
      <list> v[24][] </list>
    </channel>
    <channel>
      <list> p[25][] </list>
      <list> v[25][] </list>
    </channel>
    <channel>
      <list> p[26][] </list>
      <list> v[26][] </list>
    </channel>
    <channel>
      <list> p[27][] </list>
      <list> v[27][] </list>
    </channel>
    <channel>
      <list> p[28][] </list>
      <list> v[28][] </list>
    </channel>
    <channel>
      <list> p[29][] </list>
      <list> v[29][] </list>
    </channel>
    <channel>
      <list> p[30][] </list>
      <list> v[30][] </list>
    </channel>
    <channel>
      <list> p[31][] </list>
      <list> v[31][] </list>
    </channel>
    <channel>
      <list> p[32][] </list>
      <list> v[32][] </list>
    </channel>
    <channel>
      <list> p[33][] </list>
      <list> v[33][] </list>
    </channel>
    <channel>
      <list> p[34][] </list>
      <list> v[34][] </list>
    </channel>
    <group note="computing values">
      <extension>
        <list> %... </list>
        <supports> (0,0,0,0,0,0,0,0,0,0,0,0,0,0,0,0,0,0,0,0,0,0,0,0,0,0,0,0,0,0,0,0,0,0,0)(0,0,0,1,0,0,1,0,1,1,0,0,1,0,1,1,0,1,1,1,0,0,1,0,1,1,0,1,1,1,0,1,1,1,1)(0,0,1,0,0,1,0,1,0,2,0,1,0,1,0,2,1,0,2,2,0,1,0,1,0,2,1,0,2,2,1,0,2,2,2)(0,0,1,1,0,1,1,1,1,3,0,1,1,1,1,3,1,1,3,3,0,1,1,1,1,3,1,1,3,3,1,1,3,3,3)(0,1,0,0,1,0,0,2,2,0,1,0,0,2,2,0,2,2,0,4,1,0,0,2,2,0,2,2,0,4,2,2,0,4,4)(0,1,0,1,1,0,1,2,3,1,1,0,1,2,3,1,2,3,1,5,1,0,1,2,3,1,2,3,1,5,2,3,1,5,5)(0,1,1,0,1,1,0,3,2,2,1,1,0,3,2,2,3,2,2,6,1,1,0,3,2,2,3,2,2,6,3,2,2,6,6)(0,1,1,1,1,1,1,3,3,3,1,1,1,3,3,3,3,3,3,7,1,1,1,3,3,3,3,3,3,7,3,3,3,7,7)(1,0,0,0,2,2,2,0,0,0,2,2,2,0,0,0,4,4,4,0,2,2,2,0,0,0,4,4,4,0,4,4,4,0,8)(1,0,0,1,2,2,3,0,1,1,2,2,3,0,1,1,4,5,5,1,2,2,3,0,1,1,4,5,5,1,4,5,5,1,9)(1,0,1,0,2,3,2,1,0,2,2,3,2,1,0,2,5,4,6,2,2,3,2,1,0,2,5,4,6,2,5,4,6,2,10)(1,0,1,1,2,3,3,1,1,3,2,3,3,1,1,3,5,5,7,3,2,3,3,1,1,3,5,5,7,3,5,5,7,3,11)(1,1,0,0,3,2,2,2,2,0,3,2,2,2,2,0,6,6,4,4,3,2,2,2,2,0,6,6,4,4,6,6,4,4,12)(1,1,0,1,3,2,3,2,3,1,3,2,3,2,3,1,6,7,5,5,3,2,3,2,3,1,6,7,5,5,6,7,5,5,13)(1,1,1,0,3,3,2,3,2,2,3,3,2,3,2,2,7,6,6,6,3,3,2,3,2,2,7,6,6,6,7,6,6,6,14)(1,1,1,1,3,3,3,3,3,3,3,3,3,3,3,3,7,7,7,7,3,3,3,3,3,3,7,7,7,7,7,7,7,7,15)(2,2,2,2,0,0,0,0,0,0,4,4,4,4,4,4,0,0,0,0,4,4,4,4,4,4,0,0,0,0,8,8,8,8,0)(2,2,2,3,0,0,1,0,1,1,4,4,5,4,5,5,0,1,1,1,4,4,5,4,5,5,0,1,1,1,8,9,9,9,1)(2,2,3,2,0,1,0,1,0,2,4,5,4,5,4,6,1,0,2,2,4,5,4,5,4,6,1,0,2,2,9,8,10,10,2)(2,2,3,3,0,1,1,1,1,3,4,5,5,5,5,7,1,1,3,3,4,5,5,5,5,7,1,1,3,3,9,9,11,11,3)(2,3,2,2,1,0,0,2,2,0,5,4,4,6,6,4,2,2,0,4,5,4,4,6,6,4,2,2,0,4,10,10,8,12,4)(2,3,2,3,1,0,1,2,3,1,5,4,5,6,7,5,2,3,1,5,5,4,5,6,7,5,2,3,1,5,10,11,9,13,5)(2,3,3,2,1,1,0,3,2,2,5,5,4,7,6,6,3,2,2,6,5,5,4,7,6,6,3,2,2,6,11,10,10,14,6)(2,3,3,3,1,1,1,3,3,3,5,5,5,7,7,7,3,3,3,7,5,5,5,7,7,7,3,3,3,7,11,11,11,15,7)(3,2,2,2,2,2,2,0,0,0,6,6,6,4,4,4,4,4,4,0,6,6,6,4,4,4,4,4,4,0,12,12,12,8,8)(3,2,2,3,2,2,3,0,1,1,6,6,7,4,5,5,4,5,5,1,6,6,7,4,5,5,4,5,5,1,12,13,13,9,9)(3,2,3,2,2,3,2,1,0,2,6,7,6,5,4,6,5,4,6,2,6,7,6,5,4,6,5,4,6,2,13,12,14,10,10)(3,2,3,3,2,3,3,1,1,3,6,7,7,5,5,7,5,5,7,3,6,7,7,5,5,7,5,5,7,3,13,13,15,11,11)(3,3,2,2,3,2,2,2,2,0,7,6,6,6,6,4,6,6,4,4,7,6,6,6,6,4,6,6,4,4,14,14,12,12,12)(3,3,2,3,3,2,3,2,3,1,7,6,7,6,7,5,6,7,5,5,7,6,7,6,7,5,6,7,5,5,14,15,13,13,13)(3,3,3,2,3,3,2,3,2,2,7,7,6,7,6,6,7,6,6,6,7,7,6,7,6,6,7,6,6,6,15,14,14,14,14)(3,3,3,3,3,3,3,3,3,3,7,7,7,7,7,7,7,7,7,7,7,7,7,7,7,7,7,7,7,7,15,15,15,15,15)(4,4,4,4,4,4,4,4,4,4,0,0,0,0,0,0,0,0,0,0,8,8,8,8,8,8,8,8,8,8,0,0,0,0,0)(4,4,4,5,4,4,5,4,5,5,0,0,1,0,1,1,0,1,1,1,8,8,9,8,9,9,8,9,9,9,0,1,1,1,1)(4,4,5,4,4,5,4,5,4,6,0,1,0,1,0,2,1,0,2,2,8,9,8,9,8,10,9,8,10,10,1,0,2,2,2)(4,4,5,5,4,5,5,5,5,7,0,1,1,1,1,3,1,1,3,3,8,9,9,9,9,11,9,9,11,11,1,1,3,3,3)(4,5,4,4,5,4,4,6,6,4,1,0,0,2,2,0,2,2,0,4,9,8,8,10,10,8,10,10,8,12,2,2,0,4,4)(4,5,4,5,5,4,5,6,7,5,1,0,1,2,3,1,2,3,1,5,9,8,9,10,11,9,10,11,9,13,2,3,1,5,5)(4,5,5,4,5,5,4,7,6,6,1,1,0,3,2,2,3,2,2,6,9,9,8,11,10,10,11,10,10,14,3,2,2,6,6)(4,5,5,5,5,5,5,7,7,7,1,1,1,3,3,3,3,3,3,7,9,9,9,11,11,11,11,11,11,15,3,3,3,7,7)(5,4,4,4,6,6,6,4,4,4,2,2,2,0,0,0,4,4,4,0,10,10,10,8,8,8,12,12,12,8,4,4,4,0,8)(5,4,4,5,6,6,7,4,5,5,2,2,3,0,1,1,4,5,5,1,10,10,11,8,9,9,12,13,13,9,4,5,5,1,9)(5,4,5,4,6,7,6,5,4,6,2,3,2,1,0,2,5,4,6,2,10,11,10,9,8,10,13,12,14,10,5,4,6,2,10)(5,4,5,5,6,7,7,5,5,7,2,3,3,1,1,3,5,5,7,3,10,11,11,9,9,11,13,13,15,11,5,5,7,3,11)(5,5,4,4,7,6,6,6,6,4,3,2,2,2,2,0,6,6,4,4,11,10,10,10,10,8,14,14,12,12,6,6,4,4,12)(5,5,4,5,7,6,7,6,7,5,3,2,3,2,3,1,6,7,5,5,11,10,11,10,11,9,14,15,13,13,6,7,5,5,13)(5,5,5,4,7,7,6,7,6,6,3,3,2,3,2,2,7,6,6,6,11,11,10,11,10,10,15,14,14,14,7,6,6,6,14)(5,5,5,5,7,7,7,7,7,7,3,3,3,3,3,3,7,7,7,7,11,11,11,11,11,11,15,15,15,15,7,7,7,7,15)(6,6,6,6,4,4,4,4,4,4,4,4,4,4,4,4,0,0,0,0,12,12,12,12,12,12,8,8,8,8,8,8,8,8,0)(6,6,6,7,4,4,5,4,5,5,4,4,5,4,5,5,0,1,1,1,12,12,13,12,13,13,8,9,9,9,8,9,9,9,1)(6,6,7,6,4,5,4,5,4,6,4,5,4,5,4,6,1,0,2,2,12,13,12,13,12,14,9,8,10,10,9,8,10,10,2)(6,6,7,7,4,5,5,5,5,7,4,5,5,5,5,7,1,1,3,3,12,13,13,13,13,15,9,9,11,11,9,9,11,11,3)(6,7,6,6,5,4,4,6,6,4,5,4,4,6,6,4,2,2,0,4,13,12,12,14,14,12,10,10,8,12,10,10,8,12,4)(6,7,6,7,5,4,5,6,7,5,5,4,5,6,7,5,2,3,1,5,13,12,13,14,15,13,10,11,9,13,10,11,9,13,5)(6,7,7,6,5,5,4,7,6,6,5,5,4,7,6,6,3,2,2,6,13,13,12,15,14,14,11,10,10,14,11,10,10,14,6)(6,7,7,7,5,5,5,7,7,7,5,5,5,7,7,7,3,3,3,7,13,13,13,15,15,15,11,11,11,15,11,11,11,15,7)(7,6,6,6,6,6,6,4,4,4,6,6,6,4,4,4,4,4,4,0,14,14,14,12,12,12,12,12,12,8,12,12,12,8,8)(7,6,6,7,6,6,7,4,5,5,6,6,7,4,5,5,4,5,5,1,14,14,15,12,13,13,12,13,13,9,12,13,13,9,9)(7,6,7,6,6,7,6,5,4,6,6,7,6,5,4,6,5,4,6,2,14,15,14,13,12,14,13,12,14,10,13,12,14,10,10)(7,6,7,7,6,7,7,5,5,7,6,7,7,5,5,7,5,5,7,3,14,15,15,13,13,15,13,13,15,11,13,13,15,11,11)(7,7,6,6,7,6,6,6,6,4,7,6,6,6,6,4,6,6,4,4,15,14,14,14,14,12,14,14,12,12,14,14,12,12,12)(7,7,6,7,7,6,7,6,7,5,7,6,7,6,7,5,6,7,5,5,15,14,15,14,15,13,14,15,13,13,14,15,13,13,13)(7,7,7,6,7,7,6,7,6,6,7,7,6,7,6,6,7,6,6,6,15,15,14,15,14,14,15,14,14,14,15,14,14,14,14)(7,7,7,7,7,7,7,7,7,7,7,7,7,7,7,7,7,7,7,7,15,15,15,15,15,15,15,15,15,15,15,15,15,15,15)(8,8,8,8,8,8,8,8,8,8,8,8,8,8,8,8,8,8,8,8,0,0,0,0,0,0,0,0,0,0,0,0,0,0,0)(8,8,8,9,8,8,9,8,9,9,8,8,9,8,9,9,8,9,9,9,0,0,1,0,1,1,0,1,1,1,0,1,1,1,1)(8,8,9,8,8,9,8,9,8,10,8,9,8,9,8,10,9,8,10,10,0,1,0,1,0,2,1,0,2,2,1,0,2,2,2)(8,8,9,9,8,9,9,9,9,11,8,9,9,9,9,11,9,9,11,11,0,1,1,1,1,3,1,1,3,3,1,1,3,3,3)(8,9,8,8,9,8,8,10,10,8,9,8,8,10,10,8,10,10,8,12,1,0,0,2,2,0,2,2,0,4,2,2,0,4,4)(8,9,8,9,9,8,9,10,11,9,9,8,9,10,11,9,10,11,9,13,1,0,1,2,3,1,2,3,1,5,2,3,1,5,5)(8,9,9,8,9,9,8,11,10,10,9,9,8,11,10,10,11,10,10,14,1,1,0,3,2,2,3,2,2,6,3,2,2,6,6)(8,9,9,9,9,9,9,11,11,11,9,9,9,11,11,11,11,11,11,15,1,1,1,3,3,3,3,3,3,7,3,3,3,7,7)(9,8,8,8,10,10,10,8,8,8,10,10,10,8,8,8,12,12,12,8,2,2,2,0,0,0,4,4,4,0,4,4,4,0,8)(9,8,8,9,10,10,11,8,9,9,10,10,11,8,9,9,12,13,13,9,2,2,3,0,1,1,4,5,5,1,4,5,5,1,9)(9,8,9,8,10,11,10,9,8,10,10,11,10,9,8,10,13,12,14,10,2,3,2,1,0,2,5,4,6,2,5,4,6,2,10)(9,8,9,9,10,11,11,9,9,11,10,11,11,9,9,11,13,13,15,11,2,3,3,1,1,3,5,5,7,3,5,5,7,3,11)(9,9,8,8,11,10,10,10,10,8,11,10,10,10,10,8,14,14,12,12,3,2,2,2,2,0,6,6,4,4,6,6,4,4,12)(9,9,8,9,11,10,11,10,11,9,11,10,11,10,11,9,14,15,13,13,3,2,3,2,3,1,6,7,5,5,6,7,5,5,13)(9,9,9,8,11,11,10,11,10,10,11,11,10,11,10,10,15,14,14,14,3,3,2,3,2,2,7,6,6,6,7,6,6,6,14)(9,9,9,9,11,11,11,11,11,11,11,11,11,11,11,11,15,15,15,15,3,3,3,3,3,3,7,7,7,7,7,7,7,7,15)(10,10,10,10,8,8,8,8,8,8,12,12,12,12,12,12,8,8,8,8,4,4,4,4,4,4,0,0,0,0,8,8,8,8,0)(10,10,10,11,8,8,9,8,9,9,12,12,13,12,13,13,8,9,9,9,4,4,5,4,5,5,0,1,1,1,8,9,9,9,1)(10,10,11,10,8,9,8,9,8,10,12,13,12,13,12,14,9,8,10,10,4,5,4,5,4,6,1,0,2,2,9,8,10,10,2)(10,10,11,11,8,9,9,9,9,11,12,13,13,13,13,15,9,9,11,11,4,5,5,5,5,7,1,1,3,3,9,9,11,11,3)(10,11,10,10,9,8,8,10,10,8,13,12,12,14,14,12,10,10,8,12,5,4,4,6,6,4,2,2,0,4,10,10,8,12,4)(10,11,10,11,9,8,9,10,11,9,13,12,13,14,15,13,10,11,9,13,5,4,5,6,7,5,2,3,1,5,10,11,9,13,5)(10,11,11,10,9,9,8,11,10,10,13,13,12,15,14,14,11,10,10,14,5,5,4,7,6,6,3,2,2,6,11,10,10,14,6)(10,11,11,11,9,9,9,11,11,11,13,13,13,15,15,15,11,11,11,15,5,5,5,7,7,7,3,3,3,7,11,11,11,15,7)(11,10,10,10,10,10,10,8,8,8,14,14,14,12,12,12,12,12,12,8,6,6,6,4,4,4,4,4,4,0,12,12,12,8,8)(11,10,10,11,10,10,11,8,9,9,14,14,15,12,13,13,12,13,13,9,6,6,7,4,5,5,4,5,5,1,12,13,13,9,9)(11,10,11,10,10,11,10,9,8,10,14,15,14,13,12,14,13,12,14,10,6,7,6,5,4,6,5,4,6,2,13,12,14,10,10)(11,10,11,11,10,11,11,9,9,11,14,15,15,13,13,15,13,13,15,11,6,7,7,5,5,7,5,5,7,3,13,13,15,11,11)(11,11,10,10,11,10,10,10,10,8,15,14,14,14,14,12,14,14,12,12,7,6,6,6,6,4,6,6,4,4,14,14,12,12,12)(11,11,10,11,11,10,11,10,11,9,15,14,15,14,15,13,14,15,13,13,7,6,7,6,7,5,6,7,5,5,14,15,13,13,13)(11,11,11,10,11,11,10,11,10,10,15,15,14,15,14,14,15,14,14,14,7,7,6,7,6,6,7,6,6,6,15,14,14,14,14)(11,11,11,11,11,11,11,11,11,11,15,15,15,15,15,15,15,15,15,15,7,7,7,7,7,7,7,7,7,7,15,15,15,15,15)(12,12,12,12,12,12,12,12,12,12,8,8,8,8,8,8,8,8,8,8,8,8,8,8,8,8,8,8,8,8,0,0,0,0,0)(12,12,12,13,12,12,13,12,13,13,8,8,9,8,9,9,8,9,9,9,8,8,9,8,9,9,8,9,9,9,0,1,1,1,1)(12,12,13,12,12,13,12,13,12,14,8,9,8,9,8,10,9,8,10,10,8,9,8,9,8,10,9,8,10,10,1,0,2,2,2)(12,12,13,13,12,13,13,13,13,15,8,9,9,9,9,11,9,9,11,11,8,9,9,9,9,11,9,9,11,11,1,1,3,3,3)(12,13,12,12,13,12,12,14,14,12,9,8,8,10,10,8,10,10,8,12,9,8,8,10,10,8,10,10,8,12,2,2,0,4,4)(12,13,12,13,13,12,13,14,15,13,9,8,9,10,11,9,10,11,9,13,9,8,9,10,11,9,10,11,9,13,2,3,1,5,5)(12,13,13,12,13,13,12,15,14,14,9,9,8,11,10,10,11,10,10,14,9,9,8,11,10,10,11,10,10,14,3,2,2,6,6)(12,13,13,13,13,13,13,15,15,15,9,9,9,11,11,11,11,11,11,15,9,9,9,11,11,11,11,11,11,15,3,3,3,7,7)(13,12,12,12,14,14,14,12,12,12,10,10,10,8,8,8,12,12,12,8,10,10,10,8,8,8,12,12,12,8,4,4,4,0,8)(13,12,12,13,14,14,15,12,13,13,10,10,11,8,9,9,12,13,13,9,10,10,11,8,9,9,12,13,13,9,4,5,5,1,9)(13,12,13,12,14,15,14,13,12,14,10,11,10,9,8,10,13,12,14,10,10,11,10,9,8,10,13,12,14,10,5,4,6,2,10)(13,12,13,13,14,15,15,13,13,15,10,11,11,9,9,11,13,13,15,11,10,11,11,9,9,11,13,13,15,11,5,5,7,3,11)(13,13,12,12,15,14,14,14,14,12,11,10,10,10,10,8,14,14,12,12,11,10,10,10,10,8,14,14,12,12,6,6,4,4,12)(13,13,12,13,15,14,15,14,15,13,11,10,11,10,11,9,14,15,13,13,11,10,11,10,11,9,14,15,13,13,6,7,5,5,13)(13,13,13,12,15,15,14,15,14,14,11,11,10,11,10,10,15,14,14,14,11,11,10,11,10,10,15,14,14,14,7,6,6,6,14)(13,13,13,13,15,15,15,15,15,15,11,11,11,11,11,11,15,15,15,15,11,11,11,11,11,11,15,15,15,15,7,7,7,7,15)(14,14,14,14,12,12,12,12,12,12,12,12,12,12,12,12,8,8,8,8,12,12,12,12,12,12,8,8,8,8,8,8,8,8,0)(14,14,14,15,12,12,13,12,13,13,12,12,13,12,13,13,8,9,9,9,12,12,13,12,13,13,8,9,9,9,8,9,9,9,1)(14,14,15,14,12,13,12,13,12,14,12,13,12,13,12,14,9,8,10,10,12,13,12,13,12,14,9,8,10,10,9,8,10,10,2)(14,14,15,15,12,13,13,13,13,15,12,13,13,13,13,15,9,9,11,11,12,13,13,13,13,15,9,9,11,11,9,9,11,11,3)(14,15,14,14,13,12,12,14,14,12,13,12,12,14,14,12,10,10,8,12,13,12,12,14,14,12,10,10,8,12,10,10,8,12,4)(14,15,14,15,13,12,13,14,15,13,13,12,13,14,15,13,10,11,9,13,13,12,13,14,15,13,10,11,9,13,10,11,9,13,5)(14,15,15,14,13,13,12,15,14,14,13,13,12,15,14,14,11,10,10,14,13,13,12,15,14,14,11,10,10,14,11,10,10,14,6)(14,15,15,15,13,13,13,15,15,15,13,13,13,15,15,15,11,11,11,15,13,13,13,15,15,15,11,11,11,15,11,11,11,15,7)(15,14,14,14,14,14,14,12,12,12,14,14,14,12,12,12,12,12,12,8,14,14,14,12,12,12,12,12,12,8,12,12,12,8,8)(15,14,14,15,14,14,15,12,13,13,14,14,15,12,13,13,12,13,13,9,14,14,15,12,13,13,12,13,13,9,12,13,13,9,9)(15,14,15,14,14,15,14,13,12,14,14,15,14,13,12,14,13,12,14,10,14,15,14,13,12,14,13,12,14,10,13,12,14,10,10)(15,14,15,15,14,15,15,13,13,15,14,15,15,13,13,15,13,13,15,11,14,15,15,13,13,15,13,13,15,11,13,13,15,11,11)(15,15,14,14,15,14,14,14,14,12,15,14,14,14,14,12,14,14,12,12,15,14,14,14,14,12,14,14,12,12,14,14,12,12,12)(15,15,14,15,15,14,15,14,15,13,15,14,15,14,15,13,14,15,13,13,15,14,15,14,15,13,14,15,13,13,14,15,13,13,13)(15,15,15,14,15,15,14,15,14,14,15,15,14,15,14,14,15,14,14,14,15,15,14,15,14,14,15,14,14,14,15,14,14,14,14)(15,15,15,15,15,15,15,15,15,15,15,15,15,15,15,15,15,15,15,15,15,15,15,15,15,15,15,15,15,15,15,15,15,15,15) </supports>
      </extension>
      <args> v[][0] </args>
      <args> v[][1] </args>
      <args> v[][2] </args>
      <args> v[][3] </args>
      <args> v[][4] </args>
      <args> v[][5] </args>
      <args> v[][6] </args>
      <args> v[][7] </args>
      <args> v[][8] </args>
      <args> v[][9] </args>
      <args> v[][10] </args>
      <args> v[][11] </args>
      <args> v[][12] </args>
      <args> v[][13] </args>
      <args> v[][14] </args>
      <args> v[][15] </args>
      <args> v[][16] </args>
      <args> v[][17] </args>
      <args> v[][18] </args>
      <args> v[][19] </args>
      <args> v[][20] </args>
      <args> v[][21] </args>
      <args> v[][22] </args>
      <args> v[][23] </args>
      <args> v[][24] </args>
      <args> v[][25] </args>
      <args> v[][26] </args>
      <args> v[][27] </args>
      <args> v[][28] </args>
      <args> v[][29] </args>
      <args> v[][30] </args>
      <args> v[][31] </args>
      <args> v[][32] </args>
      <args> v[][33] </args>
      <args> v[][34] </args>
      <args> v[][35] </args>
      <args> v[][36] </args>
      <args> v[][37] </args>
    </group>
  </constraints>
</instance>
